NAME : XML100_3223_21
DIMENSION : 101
NB_CLUSTERS : 4
CLUSTERING_ALG : KMedoids
CLUSTERING_PARAMS : k(3)
CLUSTERS
1 0
2 5 7 8 9 11 14 15 16 17 18 22 23 26 28 29 30 32 35 37 41 44 45 46 49 53 54 55 57 59 61 64 65 66 68 69 70 71 73 75 76 77 78 81 82 83 84 86 87 89 90 91 92 97 98 99
3 1 3 10 12 13 19 20 21 31 33 34 38 48 50 56 58 60 79 80 88 94 96
4 2 4 6 24 25 27 36 39 40 42 43 47 51 52 62 63 67 72 74 85 93 95 100
EOF